[1, 2, 3, 4, 6, 7, 5, 8, 10, 9, 11, 12, 13, 14, 15, 16, 18, 17, 18, 15, 17, 21, 24, 23, 25, 26, 26, 31, 30, 27, 36, 37, 33, 36, 37, 37, 37, 38, 36, 39, 41, 41, 40, 35, 39, 47, 52, 50, 51, 53, 49, 47, 48, 53, 55, 56, 44, 43, 61, 60, 59, 62, 61, 65, 68, 69, 66, 64, 67, 70, 72, 71, 70, 70, 75, 76, 77, 77, 82, 80, 81, 82, 83, 83, 88, 81, 87, 84, 90, 90, 92, 91, 92, 90, 91, 98, 94, 95, 93, 106, 109, 69, 115, 109, 106, 105, 107, 108, 109, 113, 111, 108, 110, 115, 114, 116, 118, 118, 118, 124, 123, 124, 123, 124, 125, 128, 123, 124, 130, 131, 129, 132, 134, 136, 135, 137, 138, 139, 140, 137, 141, 142, 141, 143, 146, 146, 147, 149, 148, 151, 151, 152, 153, 154, 154, 155, 156, 153, 160, 161, 163, 163, 164, 163, 166, 167, 164, 165, 162, 174, 173, 172, 171, 170, 183, 180, 177, 179, 178, 180, 181, 182, 183, 183, 185, 185, 185, 190, 188, 187, 197, 196, 198, 198, 196, 196, 195, 194, 201, 202, 199, 200, 202, 200, 203, 208, 207, 212, 214, 213, 209, 204, 207, 211, 215, 217, 220, 219, 218, 217, 222, 221, 223, 224, 234, 226, 227, 228, 226, 233, 237, 236, 233, 234, 235, 236, 237, 238, 241, 242, 243, 240, 239, 242, 243, 241, 249, 248, 249, 250, 251, 253, 254, 252, 252, 257, 255, 257, 258, 260, 261, 262, 263, 264, 267, 267, 266, 268, 270, 269, 271, 272, 271, 272, 275, 277, 279, 278, 276, 7]
[1, 2, 3, 4, 8, 20, 22, 29, 43, 48, 49, 50, 51, 58, 61, 65, 66, 67, 68, 68, 86, 87, 106, 107, 107, 108, 108, 108, 124, 128, 130, 131, 139, 142, 150, 150, 152, 152, 160, 161, 166, 171, 172, 181, 182, 182, 182, 186, 208, 210, 211, 212, 213, 214, 216, 216, 220, 221, 222, 223, 225, 225, 241, 241, 248, 248, 256, 256, 257, 278]
